
  22   10
  10   10   10   10   10   10   10   10   10   10

   0   0   0   0   0   0   0   0   0   0   0   1 2 
   2  10  10  10  10  10  10  10  10  10  10   1 3 
  10  10  10  10  10  10  10  10  10  10  10   1 4 
   8  10  10  10  10  10  10  10  10  10  10   1 5 
   7  10  10  10  10  10  10  10  10  10  10   2 18 6 
   4  10  10  10  10  10  10  10  10  10  10   1 7 
   9  10  10  10  10  10  10  10  10  10  10   1 8 
   1  10  10  10  10  10  10  10  10  10  10   1 9 
   2  10  10  10  10  10  10  10  10  10  10   1 10 
   7  10  10  10  10  10  10  10  10  10  10   1 11 
   3  10  10  10  10  10  10  10  10  10  10   1 12 
   2  10  10  10  10  10  10  10  10  10  10   1 13 
  10  10  10  10  10  10  10  10  10  10  10   2 21 14 
   5  10  10  10  10  10  10  10  10  10  10   1 15 
   6  10  10  10  10  10  10  10  10  10  10   1 16 
   2  10  10  10  10  10  10  10  10  10  10   1 17 
   9  10  10  10  10  10  10  10  10  10  10   1 19 
   8  10  10  10  10  10  10  10  10  10  10   1 19 
   5  10  10  10  10  10  10  10  10  10  10   1 20 
   1  10  10  10  10  10  10  10  10  10  10   1 22
   6  10  10  10  10  10  10  10  10  10  10   1 22
   0   0   0   0   0   0   0   0   0   0   0   0 
